(set-logic QF_S)
(declare-fun var0 () String)
(assert (str.in.re var0 (re.++ (re.union (re.union (str.to.re "00") (str.to.re "111")) (re.union (str.to.re "2") (str.to.re "3"))) (re.++ (re.union (re.+ (str.to.re "444")) (re.+ (str.to.re "5"))) (re.++ (re.+ (re.+ (str.to.re "6"))) (re.++ (re.+ (re.+ (str.to.re "77"))) (re.++ (re.+ (re.union (str.to.re "888") (str.to.re "99"))) (re.++ (re.* (re.* (str.to.re "aa"))) (re.++ (re.* (re.+ (str.to.re "bb"))) (re.++ (re.* (re.+ (str.to.re "ccc"))) (re.++ (re.* (re.+ (str.to.re "dd"))) (re.++ (re.+ (re.union (str.to.re "ee") (str.to.re "fff"))) (re.++ (re.* (re.+ (str.to.re "g"))) (re.++ (re.union (re.union (str.to.re "hh") (str.to.re "iii")) (re.union (str.to.re "jj") (str.to.re "kk"))) (re.++ (re.union (re.union (str.to.re "lll") (str.to.re "mmm")) (re.union (str.to.re "n") (str.to.re "ooo"))) (re.++ (re.+ (re.+ (str.to.re "pp"))) (re.++ (re.* (re.union (str.to.re "q") (str.to.re "rr"))) (re.++ (re.+ (re.+ (str.to.re "s"))) (re.++ (re.* (re.union (str.to.re "t") (str.to.re "uuu"))) (re.++ (re.union (re.* (str.to.re "vv")) (re.* (str.to.re "www"))) (re.++ (re.union (re.* (str.to.re "xxx")) (re.* (str.to.re "yyy"))) (re.++ (re.union (re.+ (str.to.re "z")) (re.+ (str.to.re "AA"))) (re.++ (re.union (re.* (str.to.re "B")) (re.* (str.to.re "C"))) (re.++ (re.+ (re.union (str.to.re "DD") (str.to.re "EEE"))) (re.++ (re.+ (re.+ (str.to.re "FFF"))) (re.++ (re.+ (re.+ (str.to.re "G"))) (re.++ (re.* (re.* (str.to.re "HH"))) (re.++ (re.* (re.+ (str.to.re "I"))) (re.++ (re.* (re.* (str.to.re "JJ"))) (re.++ (re.* (re.union (str.to.re "KK") (str.to.re "L"))) (re.++ (re.union (re.* (str.to.re "MMM")) (re.* (str.to.re "NN"))) (re.++ (re.* (re.+ (str.to.re "O"))) (re.++ (re.+ (re.+ (str.to.re "PP"))) (re.++ (re.union (re.+ (str.to.re "Q")) (re.+ (str.to.re "RRR"))) (re.++ (re.+ (re.union (str.to.re "SSS") (str.to.re "TT"))) (re.++ (re.union (re.* (str.to.re "U")) (re.* (str.to.re "VVV"))) (re.++ (re.union (re.* (str.to.re "W")) (re.* (str.to.re "XXX"))) (re.++ (re.+ (re.* (str.to.re "Y"))) (re.++ (re.* (re.* (str.to.re "Z"))) (re.++ (re.union (re.* (str.to.re "!")) (re.* (str.to.re """"""))) (re.union (re.* (str.to.re "#")) (re.* (str.to.re "$$")))))))))))))))))))))))))))))))))))))))))))
(check-sat)